p edge 48 108
e 1 9
e 1 10
e 1 15
e 1 18
e 1 21
e 2 3
e 2 23
e 2 25
e 2 34
e 3 35
e 4 23
e 4 31
e 4 34
e 4 39
e 5 14
e 5 19
e 5 26
e 5 30
e 5 36
e 6 19
e 6 28
e 6 35
e 6 43
e 7 20
e 7 22
e 7 40
e 7 45
e 8 31
e 8 45
e 9 15
e 9 22
e 9 25
e 9 27
e 9 28
e 9 29
e 9 35
e 9 47
e 10 15
e 10 26
e 11 19
e 11 33
e 11 42
e 11 44
e 12 23
e 12 24
e 12 25
e 13 15
e 13 20
e 13 38
e 14 17
e 14 20
e 14 24
e 14 25
e 14 34
e 14 42
e 16 19
e 16 21
e 16 28
e 17 46
e 18 21
e 18 24
e 18 31
e 18 35
e 18 44
e 18 46
e 19 21
e 19 43
e 20 33
e 22 30
e 22 35
e 22 45
e 23 28
e 23 37
e 23 44
e 24 37
e 24 40
e 24 47
e 25 45
e 25 47
e 26 36
e 27 34
e 27 35
e 27 36
e 27 41
e 27 45
e 28 40
e 29 32
e 29 37
e 29 40
e 30 38
e 30 44
e 30 48
e 31 40
e 33 45
e 34 40
e 34 45
e 35 45
e 35 48
e 36 37
e 37 47
e 38 42
e 38 48
e 39 46
e 41 42
e 41 46
e 45 46
e 45 47
e 46 48
